solutions/best/exact/exact_063.sol
12
3
1
29
1
49
5
9
7
22
6
9
35
26
15
13
14
19
19
15
0
20
25
11
22
10
50
49
3
25
46
41
27
26
44
46
35
20
48
48
46
44
50
41
51
37
29
38
51
45
32
42
34
44
24
30
